c FILE /home/rafael/Documents/HappySet/MIHS/inputs/happygen/output/graph_d_regular_k5_p0.2_v100_20241127_084041.txt
c SOURCE This is a d-regular graph formed for the happy graph colouring problem.
c DESCRIPTION It was generated using the problem generator of Rhyd Lewis
c
c GRAPH STATS
c Seed                             = 1401356183
c Number of Nodes                  = 100
c Number of colours k              = 5
c Number of pre-assignments        = 20
c Degree of all vertices           = 6
c Density                          = 0.0606061
c 
c The degrees of nodes 1 to 100, respectively, are as follows 
c [6, 6, 6, 6, 6, 6, 6, 6, 6, 6, 6, 6, 6, 6, 6, 6, 6, 6, 6, 6, 6, 6, 6, 6, 6, 6, 
c  6, 6, 6, 6, 6, 6, 6, 6, 6, 6, 6, 6, 6, 6, 6, 6, 6, 6, 6, 6, 6, 6, 6, 6, 6, 
c  6, 6, 6, 6, 6, 6, 6, 6, 6, 6, 6, 6, 6, 6, 6, 6, 6, 6, 6, 6, 6, 6, 6, 6, 6, 
c  6, 6, 6, 6, 6, 6, 6, 6, 6, 6, 6, 6, 6, 6, 6, 6, 6, 6, 6, 6, 6, 6, 6, 6] 
c  
p edge 100 300 5
e 1 38
e 1 40
e 1 49
e 1 65
e 1 82
e 1 100
e 2 17
e 2 25
e 2 50
e 2 52
e 2 59
e 2 61
e 3 14
e 3 25
e 3 26
e 3 39
e 3 55
e 3 96
e 4 41
e 4 79
e 4 84
e 4 89
e 4 90
e 4 97
e 5 29
e 5 31
e 5 60
e 5 64
e 5 70
e 5 77
e 6 43
e 6 49
e 6 58
e 6 73
e 6 85
e 6 98
e 7 38
e 7 63
e 7 66
e 7 91
e 7 97
e 7 98
e 8 31
e 8 35
e 8 43
e 8 92
e 8 95
e 8 100
e 9 41
e 9 62
e 9 68
e 9 82
e 9 87
e 9 88
e 10 67
e 10 69
e 10 75
e 10 80
e 10 83
e 10 84
e 11 26
e 11 39
e 11 50
e 11 70
e 11 74
e 11 81
e 12 19
e 12 36
e 12 39
e 12 48
e 12 50
e 12 81
e 13 38
e 13 46
e 13 51
e 13 87
e 13 96
e 13 99
e 14 22
e 14 29
e 14 55
e 14 70
e 14 94
e 15 23
e 15 50
e 15 67
e 15 71
e 15 73
e 15 85
e 16 42
e 16 49
e 16 51
e 16 62
e 16 76
e 16 83
e 17 24
e 17 27
e 17 28
e 17 54
e 17 57
e 18 42
e 18 75
e 18 82
e 18 85
e 18 86
e 18 93
e 19 26
e 19 72
e 19 73
e 19 80
e 19 93
e 20 40
e 20 64
e 20 66
e 20 69
e 20 80
e 20 93
e 21 33
e 21 45
e 21 51
e 21 53
e 21 58
e 21 97
e 22 35
e 22 38
e 22 47
e 22 71
e 22 73
e 23 51
e 23 60
e 23 76
e 23 79
e 23 99
e 24 52
e 24 56
e 24 67
e 24 70
e 24 84
e 25 34
e 25 48
e 25 68
e 25 83
e 26 62
e 26 92
e 26 95
e 27 30
e 27 34
e 27 39
e 27 51
e 27 87
e 28 68
e 28 74
e 28 79
e 28 86
e 28 89
e 29 31
e 29 58
e 29 81
e 29 93
e 30 44
e 30 57
e 30 62
e 30 65
e 30 93
e 31 37
e 31 45
e 31 76
e 32 59
e 32 63
e 32 77
e 32 89
e 32 97
e 32 98
e 33 58
e 33 60
e 33 80
e 33 86
e 33 98
e 34 54
e 34 59
e 34 71
e 34 83
e 35 40
e 35 41
e 35 60
e 35 88
e 36 43
e 36 68
e 36 69
e 36 86
e 36 91
e 37 39
e 37 42
e 37 75
e 37 76
e 37 81
e 38 53
e 38 95
e 39 67
e 40 47
e 40 94
e 40 95
e 41 50
e 41 54
e 41 72
e 42 45
e 42 66
e 42 88
e 43 88
e 43 90
e 43 97
e 44 55
e 44 78
e 44 88
e 44 96
e 44 100
e 45 74
e 45 91
e 45 92
e 46 48
e 46 51
e 46 57
e 46 61
e 46 74
e 47 64
e 47 75
e 47 91
e 47 99
e 48 63
e 48 85
e 48 90
e 49 55
e 49 89
e 49 92
e 50 81
e 52 53
e 52 56
e 52 79
e 52 98
e 53 54
e 53 70
e 53 77
e 54 69
e 54 99
e 55 67
e 55 71
e 56 57
e 56 72
e 56 87
e 56 94
e 57 79
e 57 94
e 58 64
e 58 72
e 59 65
e 59 66
e 59 82
e 60 77
e 60 82
e 61 62
e 61 66
e 61 90
e 61 92
e 62 91
e 63 77
e 63 79
e 63 83
e 64 67
e 64 89
e 65 72
e 65 74
e 65 78
e 66 88
e 68 80
e 68 99
e 69 78
e 69 86
e 70 96
e 71 87
e 71 94
e 72 89
e 73 85
e 73 100
e 74 82
e 75 84
e 75 90
e 76 85
e 76 91
e 77 87
e 78 80
e 78 95
e 78 96
e 81 99
e 83 94
e 84 90
e 84 100
e 86 96
e 92 100
e 93 95
e 97 98
n 3 4
n 5 3
n 10 1
n 12 1
n 13 2
n 20 5
n 24 3
n 42 2
n 44 5
n 46 2
n 62 5
n 63 5
n 68 2
n 70 3
n 82 2
n 85 3
n 87 2
n 91 5
n 95 2
n 98 3
